#************************************************************************************
#*                   Generated by cif2cell 2.1.0 2025-10-27 1:30                    *
#*  T. Bjorkman, Comp. Phys. Commun. 182, 1183-1186 (2011). Please cite generously. *
#*                                                                                  *
#*                              Data obtained from COD                              *
#*                                    TiFe2   ()                                    *
#*             Failed to get author information, No journal information             *
#************************************************************************************

&CONTROL
   calculation='scf',
   outdir='.',
   prefix='FeAl',
   pseudo_dir='./',
   verbosity='low',
   tprnfor=.true.,
   tstress=.true.,
/

&SYSTEM
  ibrav = 0
  A =    4.84556
  nat = 12
  ntyp = 2
   ecutwfc=40,
   ecutrho=200,
   input_dft='pbe',
   occupations='smearing',
   smearing='mv',
   degauss=0.005d0,
/

&ELECTRONS
   conv_thr=1d-08,
   mixing_beta=0.7d0,
/
CELL_PARAMETERS {alat}
  1.000000000000000   0.000000000000000   0.000000000000000 
 -0.500000000000000   0.866025403784439   0.000000000000000 
  0.000000000000000   0.000000000000000   1.617622791809075 
ATOMIC_SPECIES
  Fe   55.84500  Fe.pbe-spn-kjpaw_psl.0.2.1.UPF
  Ti   47.86700  Ti_pbe_v1.4.uspp.F.UPF
ATOMIC_POSITIONS {crystal}
Fe   0.831044660000000   0.168955340000000   0.250000000000000 
Fe   0.168955340000000   0.831044660000000   0.750000000000000 
Fe   0.168955340000000   0.337910690000000   0.750000000000000 
Fe   0.337910690000000   0.168955340000000   0.250000000000000 
Fe   0.831044660000000   0.662089310000000   0.250000000000000 
Fe   0.662089310000000   0.831044660000000   0.750000000000000 
Fe   0.000000000000000   0.000000000000000   0.000000000000000 
Fe   0.000000000000000   0.000000000000000   0.500000000000000 
Ti   0.666666666666667   0.333333333333333   0.939656020000000 
Ti   0.333333333333333   0.666666666666667   0.439656020000000 
Ti   0.333333333333333   0.666666666666667   0.060343980000000 
Ti   0.666666666666667   0.333333333333333   0.560343980000000 

K_POINTS {automatic}
6 6 6 0 0 0
