#************************************************************************************
#*                   Generated by cif2cell 2.1.0 2025-10-30 16:38                   *
#*  T. Bjorkman, Comp. Phys. Commun. 182, 1183-1186 (2011). Please cite generously. *
#*                                                                                  *
#*                              Data obtained from COD                              *
#*                                    TiFe   ()                                     *
#*             Failed to get author information, No journal information             *
#************************************************************************************
&CONTROL
   calculation='scf',
   outdir='./outputs_scf',
   wfcdir='./outputs_scf'
   prefix='TiFe',
   pseudo_dir='/vscmnt/antwerpen_storage_home/_user_antwerpen/211/vsc21140/pseudos',
   verbosity='low',
   tprnfor=.true.,
   tstress=.true.,
/


&SYSTEM
  ibrav = 0
  A =    2.9386802127
  nat = 2
  ntyp = 2
  nspin = 2
  ecutwfc=140,  
  ecutrho=1120,
  input_dft='pbe',
  occupations='smearing',
  smearing='mv',
  degauss=0.005d0,
  starting_magnetization(1) = 0.0
  starting_magnetization(2) = 0.5
/

&ELECTRONS
   conv_thr=1d-08,
   mixing_beta=0.7d0,
/

CELL_PARAMETERS {alat}
  1.005474694000000   -0.00000218700000   -0.00000218700000 
  -0.00000218700000   1.005474694000000   -0.00000218700000 
  -0.00000218700000   -0.00000218700000   1.005474694000000
ATOMIC_SPECIES
  Ti   47.86700  ti_pbe_v1.4.uspp.F.UPF
  Fe   55.84500  Fe.pbe-spn-kjpaw_psl.0.2.1.UPF
ATOMIC_POSITIONS {crystal}
Fe   0.502106145600000   0.502106145600000   0.502106145600000 
Ti   0.000639854400000   0.000639854400000   0.000639854400000
K_POINTS {automatic}
11 11 11 0 0 0
