&CONTROL
  calculation='scf',
  outdir='./out',
  prefix='TiFe10',
  pseudo_dir='/home/rafi/QE/qe-7.4.1/pseudo',
  verbosity='low',
  tprnfor=.true.,
  tstress=.true.,
/
&SYSTEM
  ibrav=0,
  A=3.232548,
  nat=2,
  ntyp=2,
  ecutwfc=140,
  ecutrho=1400,
  input_dft='pbe',
  occupations='smearing',
  smearing='mv',
  degauss=0.005d0,
/
&ELECTRONS
  conv_thr=1d-08,
  mixing_beta=0.7d0,
/
CELL_PARAMETERS {alat}
  1.0 0.0 0.0
  0.0 1.0 0.0
  0.0 0.0 1.0
ATOMIC_SPECIES
  Fe  55.845  Fe.pbe-spn-kjpaw_psl.0.2.1.UPF
  Ti  47.867  ti_pbe_v1.4.uspp.F.UPF
ATOMIC_POSITIONS {crystal}
Fe  0.5  0.5  0.5
Ti  0.0  0.0  0.0
K_POINTS {automatic}
10 10 10 0 0 0
