&CONTROL
  calculation = 'scf'
  restart_mode='from_scratch'
  prefix='TiFe'
  pseudo_dir = '/home/rafi/QE/qe-7.4.1/pseudo'
  outdir='./out/'
  verbosity='high'
  tprnfor = .true.
  tstress = .true.
/
&SYSTEM
  ibrav = 0
  A = 2.91607
  nat = 2
  ntyp = 2
  ecutwfc = 64
  ecutrho = 256
  input_dft='pbe'
  occupations='smearing'
  smearing='mv'
  degauss=0.005d0
/
&ELECTRONS
  conv_thr = 1.0d-8
  mixing_beta = 0.7d0
/
CELL_PARAMETERS {alat}
  1.000000000000000   0.000000000000000   0.000000000000000
  0.000000000000000   1.000000000000000   0.000000000000000
  0.000000000000000   0.000000000000000   1.000000000000000
ATOMIC_SPECIES
  Fe   55.84500  Fe.pbe-spn-kjpaw_psl.0.2.1.UPF
  Ti   47.86700  ti_pbe_v1.4.uspp.F.UPF
ATOMIC_POSITIONS {crystal}
Fe   0.000000000000000   0.000000000000000   0.000000000000000
Ti   0.500000000000000   0.500000000000000   0.500000000000000

K_POINTS automatic
  6 6 6 0 0 0
